(declare-const X String)
; /\x2ejpeg([\?\x5c\x2f]|$)/smiU
(assert (str.in_re X (re.++ (str.to_re "/.jpeg") (re.union (str.to_re "?") (str.to_re "\u{5c}") (str.to_re "/")) (str.to_re "/smiU\u{a}"))))
; Ready\s+Toolbar\d+ServerLiteToolbar
(assert (not (str.in_re X (re.++ (str.to_re "Ready") (re.+ (re.union (str.to_re " ") (str.to_re "\u{9}") (str.to_re "\u{a}") (str.to_re "\u{c}") (str.to_re "\u{d}"))) (str.to_re "Toolbar") (re.+ (re.range "0" "9")) (str.to_re "ServerLiteToolbar\u{a}")))))
; ^(\$)?((\d{1,5})|(\d{1,3})(\,\d{3})*)(\.\d{1,2})?$
(assert (str.in_re X (re.++ (re.opt (str.to_re "$")) (re.union ((_ re.loop 1 5) (re.range "0" "9")) (re.++ ((_ re.loop 1 3) (re.range "0" "9")) (re.* (re.++ (str.to_re ",") ((_ re.loop 3 3) (re.range "0" "9")))))) (re.opt (re.++ (str.to_re ".") ((_ re.loop 1 2) (re.range "0" "9")))) (str.to_re "\u{a}"))))
; Host\x3A\s+\x2Ftoolbar\x2Fico\x2F\dencoderserverreport\<\x2Ftitle\>
(assert (str.in_re X (re.++ (str.to_re "Host:") (re.+ (re.union (str.to_re " ") (str.to_re "\u{9}") (str.to_re "\u{a}") (str.to_re "\u{c}") (str.to_re "\u{d}"))) (str.to_re "/toolbar/ico/") (re.range "0" "9") (str.to_re "encoderserverreport</title>\u{a}"))))
(check-sat)
